NAME: concorde9
TYPE: TSP
COMMENT: Generated by CCutil_writetsplib
COMMENT: Write called for by Concorde GUI
DIMENSION: 9
EDGE_WEIGHT_TYPE: EUC_2D
NODE_COORD_SECTION
1 21.024096 75.654450
2 57.771084 73.298429
3 41.566265 37.303665
4 37.048193 74.345550
5 52.108434 47.905759
6 33.373494 45.811518
7 30.481928 55.497382
8 38.192771 78.010471
9 42.168675 67.931937
